Gurobi 12.0.3:   lim:time = 14400

  mip:bestbound = 1

Set parameter LogToConsole to value 1

  tech:outlev = 1

Set parameter Cuts to value 3

  cut:cuts = 3

Set parameter Presolve to value 2

  pre:solve = 2

Set parameter MIPFocus to value 2

  mip:focus = 2

Set parameter Symmetry to value 2

  mip:symmetry = 2

Set parameter InfUnbdInfo to value 1

Gurobi Optimizer version 12.0.3 build v12.0.3rc0 (win64 - Windows 10.0 (19045.2))



CPU model: 11th Gen Intel(R) Core(TM) i7-11700 @ 2.50GHz, instruction set [SSE2|AVX|AVX2|AVX512]

Thread count: 8 physical cores, 16 logical processors, using up to 16 threads



Non-default parameters:

TimeLimit  14400

MIPFocus  2

Symmetry  2

Cuts  3

InfUnbdInfo  1

Presolve  2



Optimize a model with 312 rows, 534 columns and 2922 nonzeros

Model fingerprint: 0x10159c0d

Model has 4 quadratic objective terms

Model has 7 quadratic constraints

Variable types: 33 continuous, 501 integer (0 binary)

Coefficient statistics:

  Matrix range     [1e+00, 1e+05]

  QMatrix range    [1e+00, 1e+00]

  QLMatrix range   [1e+00, 1e+01]

  Objective range  [4e+00, 1e+02]

  QObjective range [2e+00, 2e+00]

  Bounds range     [1e+00, 1e+02]

  RHS range        [1e+00, 1e+05]

  QRHS range       [1e+02, 1e+02]

Presolve removed 33 rows and 53 columns

Presolve time: 0.03s

Presolved: 626 rows, 815 columns, 4555 nonzeros

Variable types: 151 continuous, 664 integer (592 binary)

Found heuristic solution: objective 270.8900000

Root relaxation presolve removed 19 rows and 5 columns

Root relaxation presolved: 469 rows, 674 columns, 6654 nonzeros





Root relaxation: objective 3.205853e+01, 81 iterations, 0.00 seconds (0.01 work units)



    Nodes    |    Current Node    |     Objective Bounds      |     Work

 Expl Unexpl |  Obj  Depth IntInf | Incumbent    BestBd   Gap | It/Node Time



     0     0   32.05853    0   28  270.89000   32.05853  88.2%     -    0s

     0     0   70.31087    0   31  270.89000   70.31087  74.0%     -    0s

H    0     0                     223.9700000   70.31087  68.6%     -    0s

     0     0   70.31087    0   22  223.97000   70.31087  68.6%     -    0s

     0     0   70.31167    0   33  223.97000   70.31167  68.6%     -    0s

H    0     0                     221.8200000   75.70361  65.9%     -    0s

H    0     0                     216.6600000   75.70361  65.1%     -    0s

     0     0   75.70361    0   52  216.66000   75.70361  65.1%     -    0s

     0     0   76.13556    0   52  216.66000   76.13556  64.9%     -    0s

     0     2   76.13556    0   52  216.66000   76.13556  64.9%     -    0s

H  108   113                     214.4600000   76.13556  64.5%  14.1    0s

H  193   157                     213.7300000   77.08047  63.9%  11.4    0s

H  208   157                     208.0300000   77.08047  62.9%  11.3    0s

H  278   190                     207.5500000   77.08047  62.9%  11.0    0s

* 3373  1010              16     207.0900000   98.19000  52.6%   9.6    0s

* 3399   997              13     202.4300000   98.76228  51.2%   9.6    0s

* 4223  1100              20     182.3200000  101.80058  44.2%  10.3    1s

H 4837   926                     181.2600000  101.80058  43.8%  10.8    2s



Cutting planes:

  Learned: 5

  Gomory: 8

  Lift-and-project: 10

  Cover: 10

  Implied bound: 35

  Projected implied bound: 7

  Clique: 14

  MIR: 14

  Mixing: 2

  StrongCG: 2

  Flow cover: 82

  Inf proof: 19

  Zero half: 45

  RLT: 16

  Relax-and-lift: 21



Explored 7064 nodes (86379 simplex iterations) in 2.66 seconds (2.60 work units)

Thread count was 16 (of 16 available processors)



Solution count 10: 181.26 182.32 202.43 ... 221.82



Optimal solution found (tolerance 1.00e-04)

Best objective 1.812600000000e+02, best bound 1.812600000000e+02, gap 0.0000%



AMPL MP initial flat model has 534 variables (0 integer, 501 binary);

Objectives: 1 quadratic; 

Constraints:  312 linear; 7 quadratic;



AMPL MP final model has 534 variables (0 integer, 501 binary);

Objectives: 1 quadratic; 

Constraints:  312 linear; 7 quadratic;





-----RESULTS INFO-----
running_time:  2.687
TC.best_bound:  181.26
TC:  181.26
MIP Gap (%):  0
=== Vehicle Routes ===
Vehicle 1: 0 → 1
Vehicle 1: 1 → 12
Vehicle 1: 2 → 16
Vehicle 1: 9 → 2
Vehicle 1: 12 → 9
Vehicle 2: 0 → 16
Vehicle 3: 0 → 16

=== Full Vehicle Routes ===
Vehicle 1: 0 → 1 → 12 → 9 → 2 → 0 (94<100)
Vehicle 2: 0 → 0 (0<100)
Vehicle 3: 0 → 0 (0<100)
Arc used by MRT line: y variables:
MRT used: 9 → 10
MRT used: 12 → 11
Customer assigment to PL: u variables:
3 9
4 12
5 12
6 11
7 11
8 10
Node is served by regular vehicle: g variables:
1
2
9
12
Customer assigment to Home delivery: gm variables:
1
2
Node total demands: ntd variables:
1 13 1
2 12 1
6 0 0
7 0 0
8 0 0
15 0 0
9 22 1
10 0 0
11 0 0
12 47 1
13 0 0
14 0 0
Customer's demand delivered to PL: l variables:
3
4
5
6
7
8
Lockers load <= capacity:
0 <= 93
10 <= 86
12 <= 90
26 <= 89
21 <= 76
0 <= 78
0 <= 96
